17	4
8	13	11	10	
0	0	0	0	0	3	2	3	4	
2	0	10	0	0	3	5	7	13	
3	0	3	0	0	3	6	17	17	
6	0	0	9	0	1	17	
8	8	0	0	0	3	8	9	10	
75	0	6	0	0	3	11	13	17	
50	0	8	0	0	1	14	
50	0	9	0	0	1	17	
25	0	5	0	0	2	15	17	
200	0	10	0	0	1	12	
100	0	5	0	0	1	14	
75	0	0	0	5	1	16	
2	0	1	0	0	2	17	17	
7	4	0	0	0	1	17	
6	0	0	5	0	1	17	
8	0	0	8	0	3	17	17	17	
0	0	0	0	0	0	
